c instance by G2
c solution = 01010001001000111110010
c Known solution cost is 1137 
p cnf 23 30
w 49 73 99 8 64 72 35 17 56 34 15 82 79 71 0 7 77 98 78 49 1 11 62
20 2 7 0
-23 -15 13 0
9 17 -8 0
12 -16 -3 0
12 -9 7 0
-7 12 -4 0
-21 15 13 0
4 19 -3 0
15 -19 7 0
19 -11 -4 0
3 -22 -21 0
14 4 20 0
-20 4 16 0
-10 -11 5 0
1 -2 18 0
-18 -20 -22 0
7 -15 11 0
-18 -2 16 0
-6 4 -17 0
-2 16 -1 0
5 -22 -6 0
-14 13 5 0
-10 14 21 0
12 -13 -22 0
-11 22 9 0
-5 -22 7 0
14 7 -12 0
21 8 -15 0
5 15 -18 0
-1 -22 -2 0
